qbf_easy_train/easy_4857_SAT.qdimacs
p cnf 34 91
a 16 8 0
e 1 2 3 4 5 6 7 9 10 11 12 13 14 15 17 18 19 20 21 22 23 24 25 26 27 28 29 30 31 32 33 34 0
-3 -1 0
-3 -2 0
1 2 3 0
-6 4 0
-6 -5 0
-4 5 6 0
-6 -7 -8 0
6 7 -8 0
-6 7 8 0
6 -7 8 0
-8 -2 -9 0
8 2 -9 0
-8 2 9 0
8 -2 9 0
3 -9 -10 0
-3 9 -10 0
3 9 10 0
-3 -9 10 0
12 -11 0
12 -2 0
11 2 -12 0
13 -10 0
13 12 0
10 -12 -13 0
-15 -7 0
-15 14 0
7 -14 15 0
-16 -4 0
-16 -15 0
4 15 16 0
-17 14 0
-17 16 0
-14 -16 17 0
-18 4 0
-18 17 0
-4 -17 18 0
19 -11 0
19 -2 0
11 2 -19 0
-20 19 0
-20 -7 0
-19 7 20 0
22 -21 0
22 14 0
21 -14 -22 0
-23 -22 0
-23 14 0
22 -14 23 0
-20 -23 -24 0
20 23 -24 0
-20 23 24 0
20 -23 24 0
25 18 0
25 -24 0
-18 24 -25 0
26 -4 0
26 21 0
4 -21 -26 0
2 -27 0
-2 -27 0
-28 6 0
-28 15 0
-6 -15 28 0
-29 27 0
-29 28 0
-27 -28 29 0
-30 -7 0
-30 15 0
7 -15 30 0
-31 29 0
-31 -30 0
-29 30 31 0
32 -26 0
32 -31 0
26 31 -32 0
25 -32 -33 0
-25 32 -33 0
25 32 33 0
-25 -32 33 0
-34 -13 0
-34 33 0
13 -33 34 0
24 4 -7 -14 -29 0
22 10 8 -28 30 -29 0
-4 19 25 18 27 0
4 14 -3 5 12 16 -15 0
24 19 27 -9 15 31 0
1 -11 20 -15 -2 0
-9 15 -23 -5 -30 14 0
-20 5 -32 -16 -2 0
34 0
