sat_easy_train/easy_4857_SAT.dimacs
p cnf 138 454
-3 -1 0
-3 -2 0
1 2 3 0
6 4 0
6 5 0
-4 -5 -6 0
-7 -3 0
-7 6 0
3 -6 7 0
-11 -9 0
-11 -10 0
9 10 11 0
8 -11 -12 0
-8 11 -12 0
8 11 12 0
-8 -11 12 0
5 -8 -14 0
-5 8 -14 0
5 8 14 0
-5 -8 14 0
13 14 -15 0
-13 -14 -15 0
13 -14 15 0
-13 14 15 0
-1 2 -17 0
1 -2 -17 0
-1 -2 17 0
1 2 17 0
18 -17 0
18 3 0
17 -3 -18 0
-19 16 0
-19 -18 0
-16 18 19 0
-20 -15 0
-20 -19 0
15 19 20 0
21 12 0
21 20 0
-12 -20 -21 0
22 21 0
22 1 0
-21 -1 -22 0
-23 -7 0
-23 22 0
7 -22 23 0
24 -17 0
24 -2 0
17 2 -24 0
-25 -3 0
-25 19 0
3 -19 25 0
-24 25 -26 0
24 -25 -26 0
-24 -25 26 0
24 25 26 0
-28 -5 0
-28 -27 0
5 27 28 0
26 28 -29 0
-26 -28 -29 0
26 -28 29 0
-26 28 29 0
30 23 0
30 29 0
-23 -29 -30 0
32 -31 0
32 19 0
31 -19 -32 0
-33 13 0
-33 2 0
-13 -2 33 0
-17 33 -34 0
17 -33 -34 0
-17 -33 34 0
17 33 34 0
34 9 -35 0
-34 -9 -35 0
34 -9 35 0
-34 9 35 0
-37 -35 0
-37 36 0
35 -36 37 0
-38 3 0
-38 -31 0
-3 31 38 0
17 -38 -39 0
-17 38 -39 0
17 38 39 0
-17 -38 39 0
-39 40 0
39 40 0
41 37 0
41 -40 0
-37 40 -41 0
-42 -32 0
-42 -41 0
32 41 42 0
30 -42 -43 0
-30 42 -43 0
30 42 43 0
-30 -42 43 0
-44 -39 0
-44 -39 0
39 44 0
45 -44 0
45 -44 0
44 -45 0
-46 -12 0
-46 8 0
12 -8 46 0
47 -46 0
47 -35 0
46 35 -47 0
48 -45 0
48 -47 0
45 47 -48 0
49 43 0
49 48 0
-43 -48 -49 0
51 50 0
51 2 0
-50 -2 -51 0
52 51 0
52 -31 0
-51 31 -52 0
-53 52 0
-53 10 0
-52 -10 53 0
54 -40 0
54 -53 0
40 53 -54 0
11 -18 -55 0
-11 18 -55 0
11 18 55 0
-11 -18 55 0
56 -55 0
56 35 0
55 -35 -56 0
58 24 0
58 57 0
-24 -57 -58 0
-59 -56 0
-59 58 0
56 -58 59 0
60 -54 0
60 59 0
54 -59 -60 0
4 -2 -61 0
-4 2 -61 0
4 2 61 0
-4 -2 61 0
62 33 0
62 -61 0
-33 61 -62 0
-20 1 -63 0
20 -1 -63 0
-20 -1 63 0
20 1 63 0
-62 -63 -64 0
62 63 -64 0
-62 63 64 0
62 -63 64 0
-65 55 0
-65 63 0
-55 -63 65 0
-66 -64 0
-66 65 0
64 -65 66 0
-16 -4 -67 0
16 4 -67 0
-16 4 67 0
16 -4 67 0
-68 -67 0
-68 -3 0
67 3 68 0
-69 -53 0
-69 68 0
53 -68 69 0
-70 -6 0
-70 10 0
6 -10 70 0
70 38 -71 0
-70 -38 -71 0
70 -38 71 0
-70 38 71 0
-72 -2 0
-72 -71 0
2 71 72 0
69 -72 -73 0
-69 72 -73 0
69 72 73 0
-69 -72 73 0
74 -66 0
74 73 0
66 -73 -74 0
-19 35 -75 0
19 -35 -75 0
-19 -35 75 0
19 35 75 0
76 -18 0
76 -36 0
18 36 -76 0
-1 55 -77 0
1 -55 -77 0
-1 -55 77 0
1 55 77 0
78 76 0
78 -77 0
-76 77 -78 0
79 -78 0
79 -5 0
78 5 -79 0
80 -75 0
80 -79 0
75 79 -80 0
-24 63 -81 0
24 -63 -81 0
-24 -63 81 0
24 63 81 0
-10 82 -83 0
10 -82 -83 0
-10 -82 83 0
10 82 83 0
84 -81 0
84 83 0
81 -83 -84 0
-85 -80 0
-85 -84 0
80 84 85 0
86 -74 0
86 -85 0
74 85 -86 0
87 -52 0
87 50 0
52 -50 -87 0
87 -40 -88 0
-87 40 -88 0
87 40 88 0
-87 -40 88 0
-8 27 -89 0
8 -27 -89 0
-8 -27 89 0
8 27 89 0
-90 52 0
-90 4 0
-52 -4 90 0
91 13 0
91 -90 0
-13 90 -91 0
-93 -91 0
-93 -92 0
91 92 93 0
94 -89 0
94 93 0
89 -93 -94 0
-50 20 -95 0
50 -20 -95 0
-50 -20 95 0
50 20 95 0
-96 4 0
-96 -20 0
-4 20 96 0
97 -96 0
97 11 0
96 -11 -97 0
-98 97 0
-98 44 0
-97 -44 98 0
99 13 0
99 31 0
-13 -31 -99 0
100 -98 0
100 -99 0
98 99 -100 0
101 46 0
101 -100 0
-46 100 -101 0
102 95 0
102 101 0
-95 -101 -102 0
103 -94 0
103 102 0
94 -102 -103 0
-104 -88 0
-104 -103 0
88 103 104 0
105 86 0
105 -104 0
-86 104 -105 0
106 -31 0
106 -16 0
31 16 -106 0
-107 -82 0
-107 87 0
82 -87 107 0
-108 -25 0
-108 19 0
25 -19 108 0
-61 52 -109 0
61 -52 -109 0
-61 -52 109 0
61 52 109 0
110 108 0
110 109 0
-108 -109 -110 0
111 -39 0
111 90 0
39 -90 -111 0
-112 -110 0
-112 111 0
110 -111 112 0
113 -107 0
113 112 0
107 -112 -113 0
-114 9 0
-114 -17 0
-9 17 114 0
115 -20 0
115 -114 0
20 114 -115 0
-116 -113 0
-116 115 0
113 -115 116 0
106 116 -117 0
-106 -116 -117 0
106 -116 117 0
-106 116 117 0
-118 5 0
-118 -71 0
-5 71 118 0
117 118 -119 0
-117 -118 -119 0
117 -118 119 0
-117 118 119 0
-120 -105 0
-120 119 0
105 -119 120 0
-60 -120 -121 0
60 120 -121 0
-60 120 121 0
60 -120 121 0
122 24 0
122 -18 0
-24 18 -122 0
123 99 0
123 122 0
-99 -122 -123 0
-124 37 0
-124 123 0
-37 -123 124 0
125 -114 0
125 -82 0
114 82 -125 0
126 5 0
126 -13 0
-5 13 -126 0
127 -126 0
127 2 0
126 -2 -127 0
-128 127 0
-128 39 0
-127 -39 128 0
125 -128 -129 0
-125 128 -129 0
125 128 129 0
-125 -128 129 0
130 124 0
130 129 0
-124 -129 -130 0
131 -122 0
131 -31 0
122 31 -131 0
132 27 0
132 131 0
-27 -131 -132 0
133 130 0
133 -132 0
-130 132 -133 0
134 77 0
134 -50 0
-77 50 -134 0
-135 1 0
-135 -134 0
-1 134 135 0
-136 -133 0
-136 -135 0
133 135 136 0
137 -121 0
137 -136 0
121 136 -137 0
-138 -49 0
-138 137 0
49 -137 138 0
-81 95 -52 0
96 -135 -42 -66 -81 -5 0
66 53 -130 30 71 110 0
12 88 112 0
99 -125 62 80 8 92 0
-92 130 0
-20 -124 -73 95 0
-7 30 69 -64 0
98 -108 62 -55 -13 -94 0
128 -42 9 -98 0
-111 93 -138 -120 52 -3 0
-71 -31 -56 -65 -33 0
37 50 -4 113 -89 73 0
123 -39 73 -118 -84 0
44 40 126 0
100 -95 -67 77 55 -34 0
44 37 110 0
-85 127 0
-32 76 0
-19 27 -90 41 12 0
114 73 68 -102 0
-5 -8 -48 -41 34 0
58 36 -69 -63 26 -111 0
-58 96 44 -57 0
28 79 -6 -130 0
46 -19 -53 26 -88 0
-102 -51 101 134 78 0
117 79 -56 -92 109 0
-5 -95 -30 13 0
-114 115 -110 -100 -29 0
71 45 -77 0
-14 -29 -125 -99 98 0
-112 -50 40 -38 68 0
-61 71 -65 0
73 133 0
65 -129 0
8 112 27 25 106 0
4 -124 -101 -131 0
-50 -65 0
125 131 19 -42 61 0
-109 93 64 45 -8 0
50 -110 27 137 0
-30 -120 -87 -16 -25 0
-74 42 75 -4 -22 0
-98 66 -100 -25 0
-52 15 -22 16 0
109 17 42 -27 0
127 -68 0
47 -102 -137 94 96 -91 0
-15 -107 0
123 18 -23 0
117 -112 0
40 91 -30 -26 112 -137 0
8 59 134 70 -113 0
46 -49 -13 124 53 27 0
82 74 97 116 4 64 0
-120 -23 0
114 36 9 0
-79 133 0
138 0
